p wcnf 20 91 964
4 4 -18 19 0
3 3 18 -5 0
5 -5 -8 -15 0
20 -20 7 -16 0
10 10 -13 -7 0
12 -12 -9 17 0
17 17 19 5 0
16 -16 9 15 0
11 11 -5 -14 0
18 18 -10 13 0
3 -3 11 12 0
6 -6 -17 -8 0
18 -18 14 1 0
19 -19 -15 10 0
12 12 18 -19 0
8 -8 4 7 0
8 -8 -9 4 0
7 7 17 -15 0
12 12 -7 -14 0
10 -10 -11 8 0
2 2 -15 -11 0
9 9 6 1 0
11 -11 20 -17 0
9 9 -15 13 0
12 12 -7 -17 0
18 -18 -2 20 0
20 20 12 4 0
19 19 11 14 0
16 -16 18 -4 0
1 -1 -17 -19 0
13 -13 15 10 0
12 -12 -14 -13 0
12 12 -14 -7 0
7 -7 16 10 0
6 6 10 7 0
20 20 14 -16 0
19 -19 17 11 0
7 -7 1 -20 0
5 -5 12 15 0
4 -4 -9 -13 0
12 12 -11 -7 0
5 -5 19 -8 0
1 1 16 17 0
20 20 -14 -15 0
13 13 -4 10 0
14 14 7 10 0
5 -5 9 20 0
10 10 1 -19 0
16 -16 -15 -1 0
16 16 3 -11 0
15 -15 -10 4 0
4 4 -15 -3 0
10 -10 -16 11 0
8 -8 12 -5 0
14 14 -6 12 0
1 1 6 11 0
13 -13 -5 -1 0
7 -7 -2 12 0
1 1 -20 19 0
2 -2 -13 -8 0
15 15 18 4 0
11 -11 14 9 0
6 -6 -15 -2 0
5 5 -12 -15 0
6 -6 17 5 0
13 -13 5 -19 0
20 20 -1 14 0
9 9 -17 15 0
5 -5 19 -18 0
12 -12 8 -10 0
18 -18 14 -4 0
15 15 -9 13 0
9 9 -5 -1 0
10 10 -19 -14 0
20 20 9 4 0
9 -9 -2 19 0
5 -5 13 -17 0
2 2 -10 -18 0
18 -18 3 11 0
7 7 -9 17 0
15 -15 -6 -3 0
2 -2 3 -13 0
12 12 3 -2 0
2 -2 -3 17 0
20 20 -15 -16 0
5 -5 -17 -19 0
20 -20 -18 11 0
9 -9 1 -5 0
19 -19 9 17 0
12 12 -2 17 0
4 4 -16 -5 0
